Maximize
F - f1 - f2

Subject to
F - 40y32 - 40y162 - 20y21 - 20y123 - 10y40 - 10y161 - 30y17 - 40y127 - 10y164 - 10y47 - 30y153 - 40y11 - 20y115 - 30y203 - 20y95 - 20y146 - 10y186 - 40y189 - 20y129 - 40y13 - 20y163 - 10y174 - 40y36 - 30y50 - 30y178 - 40y58 - 10y188 - 30y86 - 40y159 - 40y191 - 40y61 - 40y89 - 10y175 - 40y42 - 20y165 - 10y150 - 10y10 - 20y62 - 10y139 - 10y113 = 0
f1 - 0.004297s32 - 0.004297s162 - 0.004297s21 - 0.004297s123 - 0.004297s40 - 0.004297s161 - 0.004297s17 - 0.004297s127 - 0.004297s164 - 0.004297s47 - 0.004297s153 - 0.004297s11 - 0.004297s115 - 0.004297s203 - 0.004297s95 - 0.004297s146 - 0.004297s186 - 0.004297s189 - 0.004297s129 - 0.004297s13 - 0.004297s163 - 0.004297s174 - 0.004297s36 - 0.004297s50 - 0.004297s178 - 0.004297s58 - 0.004297s188 - 0.004297s86 - 0.004297s159 - 0.004297s191 - 0.004297s61 - 0.004297s89 - 0.004297s175 - 0.004297s42 - 0.004297s165 - 0.004297s150 - 0.004297s10 - 0.004297s62 - 0.004297s139 - 0.004297s113  = 0
f2 - 1.53y32 - 1.55y162 - 1.40y21 - 0.54y123 - 1.33y40 - 1.43y161 - 1.36y17 - 4.40y127 - 4.35y164 - 1.07y47 - 1.49y153 - 2.57y11 - 1.39y115 - 1.07y203 - 2.32y95 - 2.24y146 - 0.96y186 - 2.20y189 - 2.14y129 - 0.81y13 - 2.10y163 - 0.83y174 - 2.10y36 - 0.85y50 - 0.82y178 - 2.03y58 - 0.67y188 - 0.63y86 - 0.38y159 - 0.33y191 - 0.34y61 - 0.29y89 - 2.43y175 - 0.24y42 - 0.19y165 - 0.18y150 - 0.85y10 - 0.75y62 - 0.11y139 - 0.91y113 = 0

x75x40x1 + x75x17x1 + x75x127x1 + x75x47x1 + x75x153x1 + x75x11x1 + x75x95x1 + x75x189x1 + x75x86x1 + x75x89x1 + x75x10x1 + x75x139x1 + x75x113x1 
<= 2
x77x11x1 + x77x95x1 + x77x189x1 
<= 2
x19x86x1 + x19x89x1 + x19x10x1 + x19x139x1 + x19x113x1 
<= 1

x14x11x3 + x14x146x3 + x14x186x3 + x14x189x3 + x14x36x3 + x14x178x3 + x14x58x3 + x14x188x3 + x14x86x3 + x14x159x3 + x14x175x3 + x14x42x3 + x14x150x3 
<= 2
x19x21x3 + x19x186x3 + x19x178x3 + x19x58x3 + x19x188x3 + x19x86x3 + x19x159x3 + x19x42x3 + x19x150x3 + x19x10x3 + x19x62x3 
<= 1


- x32x86x1 - x32x89x1 - x32x10x1 - x32x139x1 - x32x113x1 
= 0

- x32x21x2 - x32x186x2 - x32x13x2 - x32x174x2 - x32x188x2 - x32x159x2 - x32x191x2 - x32x61x2 - x32x89x2 - x32x165x2 - x32x150x2 
= 0




- x162x161x2 - x162x115x2 - x162x146x2 - x162x186x2 - x162x129x2 - x162x13x2 - x162x163x2 - x162x174x2 - x162x50x2 - x162x188x2 - x162x159x2 - x162x191x2 - x162x61x2 - x162x89x2 - x162x165x2 - x162x150x2 
= 0



x32x21x2 
- x21x0x2
- x21x186x2 - x21x13x2 - x21x174x2 - x21x188x2 - x21x159x2 - x21x191x2 - x21x61x2 - x21x89x2 - x21x165x2 - x21x150x2 
= 0
x19x21x3 
- x21x0x3
- x21x186x3 - x21x178x3 - x21x188x3 - x21x86x3 - x21x159x3 - x21x42x3 - x21x150x3 - x21x10x3 - x21x62x3 
= 0




- x123x11x3 - x123x146x3 - x123x186x3 - x123x36x3 - x123x178x3 - x123x58x3 - x123x188x3 - x123x86x3 - x123x159x3 - x123x42x3 - x123x150x3 - x123x10x3 - x123x62x3 
= 0

x75x40x1 
- x40x0x1
- x40x47x1 - x40x11x1 - x40x95x1 - x40x189x1 - x40x86x1 - x40x89x1 - x40x10x1 - x40x139x1 - x40x113x1 
= 0




x162x161x2 
- x161x0x2
- x161x115x2 - x161x146x2 - x161x186x2 - x161x129x2 - x161x13x2 - x161x163x2 - x161x174x2 - x161x50x2 - x161x188x2 - x161x159x2 - x161x191x2 - x161x61x2 - x161x89x2 - x161x165x2 - x161x150x2 
= 0

- x161x17x3 - x161x11x3 - x161x115x3 - x161x203x3 - x161x146x3 - x161x186x3 - x161x189x3 - x161x36x3 - x161x178x3 - x161x58x3 - x161x188x3 - x161x86x3 - x161x159x3 - x161x175x3 - x161x42x3 - x161x150x3 - x161x10x3 - x161x62x3 
= 0

x75x17x1 
- x17x0x1
- x17x47x1 - x17x11x1 - x17x95x1 - x17x189x1 - x17x86x1 - x17x89x1 - x17x10x1 - x17x139x1 - x17x113x1 
= 0

x161x17x3 
- x17x0x3
- x17x11x3 - x17x115x3 - x17x203x3 - x17x146x3 - x17x186x3 - x17x189x3 - x17x36x3 - x17x178x3 - x17x58x3 - x17x188x3 - x17x86x3 - x17x159x3 - x17x175x3 - x17x42x3 - x17x150x3 - x17x10x3 - x17x62x3 
= 0

x75x127x1 
- x127x0x1
- x127x11x1 - x127x95x1 - x127x189x1 - x127x86x1 
= 0

- x127x164x2 - x127x146x2 - x127x186x2 - x127x129x2 - x127x13x2 - x127x163x2 - x127x174x2 
= 0



x127x164x2 
- x164x0x2
- x164x146x2 - x164x186x2 - x164x129x2 - x164x13x2 - x164x163x2 - x164x174x2 
= 0


x75x47x1 + x40x47x1 + x17x47x1 
- x47x0x1
- x47x11x1 - x47x95x1 - x47x189x1 - x47x86x1 - x47x89x1 - x47x10x1 - x47x139x1 - x47x113x1 
= 0



x75x153x1 
- x153x0x1

= 0



x75x11x1 + x77x11x1 + x40x11x1 + x17x11x1 + x127x11x1 + x47x11x1 
- x11x0x1

= 0

x14x11x3 + x123x11x3 + x161x11x3 + x17x11x3 
- x11x0x3

= 0


x162x115x2 + x161x115x2 
- x115x0x2

= 0
x161x115x3 + x17x115x3 
- x115x0x3

= 0



x161x203x3 + x17x203x3 
- x203x0x3

= 0

x75x95x1 + x77x95x1 + x40x95x1 + x17x95x1 + x127x95x1 + x47x95x1 
- x95x0x1

= 0




x162x146x2 + x161x146x2 + x127x146x2 + x164x146x2 
- x146x0x2

= 0
x14x146x3 + x123x146x3 + x161x146x3 + x17x146x3 
- x146x0x3

= 0


x32x186x2 + x162x186x2 + x21x186x2 + x161x186x2 + x127x186x2 + x164x186x2 
- x186x0x2

= 0
x14x186x3 + x19x186x3 + x21x186x3 + x123x186x3 + x161x186x3 + x17x186x3 
- x186x0x3

= 0

x75x189x1 + x77x189x1 + x40x189x1 + x17x189x1 + x127x189x1 + x47x189x1 
- x189x0x1

= 0

x14x189x3 + x161x189x3 + x17x189x3 
- x189x0x3

= 0


x162x129x2 + x161x129x2 + x127x129x2 + x164x129x2 
- x129x0x2

= 0



x32x13x2 + x162x13x2 + x21x13x2 + x161x13x2 + x127x13x2 + x164x13x2 
- x13x0x2

= 0



x162x163x2 + x161x163x2 + x127x163x2 + x164x163x2 
- x163x0x2

= 0



x32x174x2 + x162x174x2 + x21x174x2 + x161x174x2 + x127x174x2 + x164x174x2 
- x174x0x2

= 0




x14x36x3 + x123x36x3 + x161x36x3 + x17x36x3 
- x36x0x3

= 0


x162x50x2 + x161x50x2 
- x50x0x2

= 0




x14x178x3 + x19x178x3 + x21x178x3 + x123x178x3 + x161x178x3 + x17x178x3 
- x178x0x3

= 0



x14x58x3 + x19x58x3 + x123x58x3 + x161x58x3 + x17x58x3 
- x58x0x3

= 0


x32x188x2 + x162x188x2 + x21x188x2 + x161x188x2 
- x188x0x2

= 0
x14x188x3 + x19x188x3 + x21x188x3 + x123x188x3 + x161x188x3 + x17x188x3 
- x188x0x3

= 0

x75x86x1 + x19x86x1 + x32x86x1 + x40x86x1 + x17x86x1 + x127x86x1 + x47x86x1 
- x86x0x1

= 0

x14x86x3 + x19x86x3 + x21x86x3 + x123x86x3 + x161x86x3 + x17x86x3 
- x86x0x3

= 0


x32x159x2 + x162x159x2 + x21x159x2 + x161x159x2 
- x159x0x2

= 0
x14x159x3 + x19x159x3 + x21x159x3 + x123x159x3 + x161x159x3 + x17x159x3 
- x159x0x3

= 0


x32x191x2 + x162x191x2 + x21x191x2 + x161x191x2 
- x191x0x2

= 0



x32x61x2 + x162x61x2 + x21x61x2 + x161x61x2 
- x61x0x2

= 0


x75x89x1 + x19x89x1 + x32x89x1 + x40x89x1 + x17x89x1 + x47x89x1 
- x89x0x1

= 0
x32x89x2 + x162x89x2 + x21x89x2 + x161x89x2 
- x89x0x2

= 0




x14x175x3 + x161x175x3 + x17x175x3 
- x175x0x3

= 0



x14x42x3 + x19x42x3 + x21x42x3 + x123x42x3 + x161x42x3 + x17x42x3 
- x42x0x3

= 0


x32x165x2 + x162x165x2 + x21x165x2 + x161x165x2 
- x165x0x2

= 0



x32x150x2 + x162x150x2 + x21x150x2 + x161x150x2 
- x150x0x2

= 0
x14x150x3 + x19x150x3 + x21x150x3 + x123x150x3 + x161x150x3 + x17x150x3 
- x150x0x3

= 0

x75x10x1 + x19x10x1 + x32x10x1 + x40x10x1 + x17x10x1 + x47x10x1 
- x10x0x1

= 0

x19x10x3 + x21x10x3 + x123x10x3 + x161x10x3 + x17x10x3 
- x10x0x3

= 0



x19x62x3 + x21x62x3 + x123x62x3 + x161x62x3 + x17x62x3 
- x62x0x3

= 0

x75x139x1 + x19x139x1 + x32x139x1 + x40x139x1 + x17x139x1 + x47x139x1 
- x139x0x1

= 0



x75x113x1 + x19x113x1 + x32x113x1 + x40x113x1 + x17x113x1 + x47x113x1 
- x113x0x1

= 0



1y32 = 0
1y32 = 0
2y162 = 0
1y21 - x32x21x2 = 0
1y21 - x19x21x3 = 0
2y123 = 0
2y40 - x75x40x1 = 0
1y161 - x162x161x2 = 0
1y161 = 0
1y17 - x75x17x1 = 0
1y17 - x161x17x3 = 0
1y127 - x75x127x1 = 0
1y127 = 0
2y164 - x127x164x2 = 0
2y47 - x75x47x1 - x40x47x1 - x17x47x1 = 0
2y153 - x75x153x1 = 0
1y11 - x75x11x1 - x77x11x1 - x40x11x1 - x17x11x1 - x127x11x1 - x47x11x1 = 0
1y11 - x14x11x3 - x123x11x3 - x161x11x3 - x17x11x3 = 0
1y115 - x162x115x2 - x161x115x2 = 0
1y115 - x161x115x3 - x17x115x3 = 0
2y203 - x161x203x3 - x17x203x3 = 0
2y95 - x75x95x1 - x77x95x1 - x40x95x1 - x17x95x1 - x127x95x1 - x47x95x1 = 0
1y146 - x162x146x2 - x161x146x2 - x127x146x2 - x164x146x2 = 0
1y146 - x14x146x3 - x123x146x3 - x161x146x3 - x17x146x3 = 0
1y186 - x32x186x2 - x162x186x2 - x21x186x2 - x161x186x2 - x127x186x2 - x164x186x2 = 0
1y186 - x14x186x3 - x19x186x3 - x21x186x3 - x123x186x3 - x161x186x3 - x17x186x3 = 0
1y189 - x75x189x1 - x77x189x1 - x40x189x1 - x17x189x1 - x127x189x1 - x47x189x1 = 0
1y189 - x14x189x3 - x161x189x3 - x17x189x3 = 0
2y129 - x162x129x2 - x161x129x2 - x127x129x2 - x164x129x2 = 0
2y13 - x32x13x2 - x162x13x2 - x21x13x2 - x161x13x2 - x127x13x2 - x164x13x2 = 0
2y163 - x162x163x2 - x161x163x2 - x127x163x2 - x164x163x2 = 0
2y174 - x32x174x2 - x162x174x2 - x21x174x2 - x161x174x2 - x127x174x2 - x164x174x2 = 0
2y36 - x14x36x3 - x123x36x3 - x161x36x3 - x17x36x3 = 0
2y50 - x162x50x2 - x161x50x2 = 0
2y178 - x14x178x3 - x19x178x3 - x21x178x3 - x123x178x3 - x161x178x3 - x17x178x3 = 0
2y58 - x14x58x3 - x19x58x3 - x123x58x3 - x161x58x3 - x17x58x3 = 0
1y188 - x32x188x2 - x162x188x2 - x21x188x2 - x161x188x2 = 0
1y188 - x14x188x3 - x19x188x3 - x21x188x3 - x123x188x3 - x161x188x3 - x17x188x3 = 0
1y86 - x75x86x1 - x19x86x1 - x32x86x1 - x40x86x1 - x17x86x1 - x127x86x1 - x47x86x1 = 0
1y86 - x14x86x3 - x19x86x3 - x21x86x3 - x123x86x3 - x161x86x3 - x17x86x3 = 0
1y159 - x32x159x2 - x162x159x2 - x21x159x2 - x161x159x2 = 0
1y159 - x14x159x3 - x19x159x3 - x21x159x3 - x123x159x3 - x161x159x3 - x17x159x3 = 0
2y191 - x32x191x2 - x162x191x2 - x21x191x2 - x161x191x2 = 0
2y61 - x32x61x2 - x162x61x2 - x21x61x2 - x161x61x2 = 0
1y89 - x75x89x1 - x19x89x1 - x32x89x1 - x40x89x1 - x17x89x1 - x47x89x1 = 0
1y89 - x32x89x2 - x162x89x2 - x21x89x2 - x161x89x2 = 0
2y175 - x14x175x3 - x161x175x3 - x17x175x3 = 0
2y42 - x14x42x3 - x19x42x3 - x21x42x3 - x123x42x3 - x161x42x3 - x17x42x3 = 0
2y165 - x32x165x2 - x162x165x2 - x21x165x2 - x161x165x2 = 0
1y150 - x32x150x2 - x162x150x2 - x21x150x2 - x161x150x2 = 0
1y150 - x14x150x3 - x19x150x3 - x21x150x3 - x123x150x3 - x161x150x3 - x17x150x3 = 0
1y10 - x75x10x1 - x19x10x1 - x32x10x1 - x40x10x1 - x17x10x1 - x47x10x1 = 0
1y10 - x19x10x3 - x21x10x3 - x123x10x3 - x161x10x3 - x17x10x3 = 0
2y62 - x19x62x3 - x21x62x3 - x123x62x3 - x161x62x3 - x17x62x3 = 0
2y139 - x75x139x1 - x19x139x1 - x32x139x1 - x40x139x1 - x17x139x1 - x47x139x1 = 0
2y113 - x75x113x1 - x19x113x1 - x32x113x1 - x40x113x1 - x17x113x1 - x47x113x1 = 0

s75 - s40 + 5.154429z75z40z1 <= 3.94
s75 - s17 + 5.160781z75z17z1 <= 3.94
s75 - s127 + 5.298016z75z127z1 <= 3.94
s75 - s47 + 5.188156z75z47z1 <= 3.94
s75 - s153 + 5.164287z75z153z1 <= 3.94
s75 - s11 + 5.240310z75z11z1 <= 3.94
s75 - s95 + 5.278056z75z95z1 <= 3.94
s75 - s189 + 5.218849z75z189z1 <= 3.94
s75 - s86 + 5.329010z75z86z1 <= 3.94
s75 - s89 + 5.380175z75z89z1 <= 3.94
s75 - s10 + 5.407394z75z10z1 <= 3.94
s75 - s139 + 5.367815z75z139z1 <= 3.94
s75 - s113 + 5.409105z75z113z1 <= 3.94
s77 - s11 + 5.739048z77z11z1 <= 4.29
s77 - s95 + 5.779989z77z95z1 <= 4.29
s77 - s189 + 5.788977z77z189z1 <= 4.29
s14 - s11 + 5.634518z14z11z3 <= 4.38
s14 - s146 + 5.679677z14z146z3 <= 4.38
s14 - s186 + 5.856232z14z186z3 <= 4.38
s14 - s189 + 5.681499z14z189z3 <= 4.38
s14 - s36 + 5.698190z14z36z3 <= 4.38
s14 - s178 + 5.870987z14z178z3 <= 4.38
s14 - s58 + 5.708964z14z58z3 <= 4.38
s14 - s188 + 5.891727z14z188z3 <= 4.38
s14 - s86 + 5.900437z14z86z3 <= 4.38
s14 - s159 + 5.933285z14z159z3 <= 4.38
s14 - s175 + 5.726503z14z175z3 <= 4.38
s14 - s42 + 5.957200z14z42z3 <= 4.38
s14 - s150 + 5.970012z14z150z3 <= 4.38
s19 - s21 + 5.394907z19z21z3 <= 4.38
s19 - s186 + 5.888811z19z186z3 <= 4.38
s19 - s178 + 5.841736z19z178z3 <= 4.38
s19 - s58 + 5.991083z19z58z3 <= 4.38
s19 - s188 + 5.837287z19z188z3 <= 4.38
s19 - s86 + 5.860046z19z86z1 <= 4.38
s19 - s86 + 5.860046z19z86z3 <= 4.38
s19 - s159 + 5.831221z19z159z3 <= 4.38
s19 - s89 + 5.865341z19z89z1 <= 4.38
s19 - s42 + 5.852535z19z42z3 <= 4.38
s19 - s150 + 5.871212z19z150z3 <= 4.38
s19 - s10 + 5.637250z19z10z1 <= 4.38
s19 - s10 + 5.637250z19z10z3 <= 4.38
s19 - s62 + 5.603607z19z62z3 <= 4.38
s19 - s139 + 5.812306z19z139z1 <= 4.38
s19 - s113 + 5.616737z19z113z1 <= 4.38
s32 - s21 + 6.400000z32z21z2 <= 5.38
s32 - s186 + 6.921480z32z186z2 <= 5.38
s32 - s13 + 6.895451z32z13z2 <= 5.38
s32 - s174 + 6.909360z32z174z2 <= 5.38
s32 - s188 + 6.869580z32z188z2 <= 5.38
s32 - s86 + 6.891946z32z86z1 <= 5.38
s32 - s159 + 6.862448z32z159z2 <= 5.38
s32 - s191 + 6.894198z32z191z2 <= 5.38
s32 - s61 + 6.863781z32z61z2 <= 5.38
s32 - s89 + 6.895795z32z89z1 <= 5.38
s32 - s89 + 6.895795z32z89z2 <= 5.38
s32 - s165 + 6.892814z32z165z2 <= 5.38
s32 - s150 + 6.901068z32z150z2 <= 5.38
s32 - s10 + 6.663236z32z10z1 <= 5.38
s32 - s139 + 6.842505z32z139z1 <= 5.38
s32 - s113 + 6.642383z32z113z1 <= 5.38
s162 - s161 + 6.414907z162z161z2 <= 5.40
s162 - s115 + 6.427487z162z115z2 <= 5.40
s162 - s146 + 6.606667z162z146z2 <= 5.40
s162 - s186 + 6.573845z162z186z2 <= 5.40
s162 - s129 + 6.628230z162z129z2 <= 5.40
s162 - s13 + 6.567199z162z13z2 <= 5.40
s162 - s163 + 6.614994z162z163z2 <= 5.40
s162 - s174 + 6.578886z162z174z2 <= 5.40
s162 - s50 + 6.530979z162z50z2 <= 5.40
s162 - s188 + 6.564924z162z188z2 <= 5.40
s162 - s159 + 6.601770z162z159z2 <= 5.40
s162 - s191 + 6.632857z162z191z2 <= 5.40
s162 - s61 + 6.608380z162z61z2 <= 5.40
s162 - s89 + 6.639351z162z89z2 <= 5.40
s162 - s165 + 6.651042z162z165z2 <= 5.40
s162 - s150 + 6.658887z162z150z2 <= 5.40
s21 - s186 + 6.931536z21z186z2 <= 5.41
s21 - s186 + 6.931536z21z186z3 <= 5.41
s21 - s13 + 6.905536z21z13z2 <= 5.41
s21 - s174 + 6.919466z21z174z2 <= 5.41
s21 - s178 + 6.884505z21z178z3 <= 5.41
s21 - s188 + 6.879704z21z188z2 <= 5.41
s21 - s188 + 6.879704z21z188z3 <= 5.41
s21 - s86 + 6.902161z21z86z3 <= 5.41
s21 - s159 + 6.872841z21z159z2 <= 5.41
s21 - s159 + 6.872841z21z159z3 <= 5.41
s21 - s191 + 6.904773z21z191z2 <= 5.41
s21 - s61 + 6.874231z21z61z2 <= 5.41
s21 - s89 + 6.906432z21z89z2 <= 5.41
s21 - s42 + 6.893552z21z42z3 <= 5.41
s21 - s165 + 6.903604z21z165z2 <= 5.41
s21 - s150 + 6.911907z21z150z2 <= 5.41
s21 - s150 + 6.911907z21z150z3 <= 5.41
s21 - s10 + 6.675497z21z10z3 <= 5.41
s21 - s62 + 6.642857z21z62z3 <= 5.41
s123 - s11 + 6.976196z123z11z3 <= 5.41
s123 - s146 + 6.942708z123z146z3 <= 5.41
s123 - s186 + 6.828675z123z186z3 <= 5.41
s123 - s36 + 6.921034z123z36z3 <= 5.41
s123 - s178 + 6.781543z123z178z3 <= 5.41
s123 - s58 + 6.926096z123z58z3 <= 5.41
s123 - s188 + 6.778782z123z188z3 <= 5.41
s123 - s86 + 6.802938z123z86z3 <= 5.41
s123 - s159 + 6.776848z123z159z3 <= 5.41
s123 - s42 + 6.801294z123z42z3 <= 5.41
s123 - s150 + 6.821609z123z150z3 <= 5.41
s123 - s10 + 6.608886z123z10z3 <= 5.41
s123 - s62 + 6.570555z123z62z3 <= 5.41
s40 - s47 + 6.473993z40z47z1 <= 5.44
s40 - s11 + 6.711948z40z11z1 <= 5.44
s40 - s95 + 6.720079z40z95z1 <= 5.44
s40 - s189 + 6.654269z40z189z1 <= 5.44
s40 - s86 + 6.631021z40z86z1 <= 5.44
s40 - s89 + 6.676455z40z89z1 <= 5.44
s40 - s10 + 6.712029z40z10z1 <= 5.44
s40 - s139 + 6.655922z40z139z1 <= 5.44
s40 - s113 + 6.719126z40z113z1 <= 5.44
s161 - s17 + 6.449428z161z17z3 <= 5.44
s161 - s11 + 6.685854z161z11z3 <= 5.44
s161 - s115 + 6.458856z161z115z2 <= 5.44
s161 - s115 + 6.458856z161z115z3 <= 5.44
s161 - s203 + 6.520554z161z203z3 <= 5.44
s161 - s146 + 6.653749z161z146z2 <= 5.44
s161 - s146 + 6.653749z161z146z3 <= 5.44
s161 - s186 + 6.606667z161z186z2 <= 5.44
s161 - s186 + 6.606667z161z186z3 <= 5.44
s161 - s189 + 6.627735z161z189z3 <= 5.44
s161 - s129 + 6.673714z161z129z2 <= 5.44
s161 - s13 + 6.598043z161z13z2 <= 5.44
s161 - s163 + 6.660404z161z163z2 <= 5.44
s161 - s174 + 6.610359z161z174z2 <= 5.44
s161 - s36 + 6.633333z161z36z3 <= 5.44
s161 - s50 + 6.560185z161z50z2 <= 5.44
s161 - s178 + 6.577437z161z178z3 <= 5.44
s161 - s58 + 6.640444z161z58z3 <= 5.44
s161 - s188 + 6.593912z161z188z2 <= 5.44
s161 - s188 + 6.593912z161z188z3 <= 5.44
s161 - s86 + 6.619505z161z86z3 <= 5.44
s161 - s159 + 6.629620z161z159z2 <= 5.44
s161 - s159 + 6.629620z161z159z3 <= 5.44
s161 - s191 + 6.661611z161z191z2 <= 5.44
s161 - s61 + 6.636186z161z61z2 <= 5.44
s161 - s89 + 6.668035z161z89z2 <= 5.44
s161 - s175 + 6.821459z161z175z3 <= 5.44
s161 - s42 + 6.664895z161z42z3 <= 5.44
s161 - s165 + 6.679351z161z165z2 <= 5.44
s161 - s150 + 6.687387z161z150z2 <= 5.44
s161 - s150 + 6.687387z161z150z3 <= 5.44
s161 - s10 + 6.728521z161z10z3 <= 5.44
s161 - s62 + 6.718488z161z62z3 <= 5.44
s17 - s47 + 6.497712z17z47z1 <= 5.46
s17 - s11 + 6.713859z17z11z1 <= 5.46
s17 - s11 + 6.713859z17z11z3 <= 5.46
s17 - s115 + 6.481082z17z115z3 <= 5.46
s17 - s203 + 6.537746z17z203z3 <= 5.46
s17 - s95 + 6.720342z17z95z1 <= 5.46
s17 - s146 + 6.680907z17z146z3 <= 5.46
s17 - s186 + 6.625597z17z186z3 <= 5.46
s17 - s189 + 6.655164z17z189z1 <= 5.46
s17 - s189 + 6.655164z17z189z3 <= 5.46
s17 - s36 + 6.660111z17z36z3 <= 5.46
s17 - s178 + 6.594164z17z178z3 <= 5.46
s17 - s58 + 6.666774z17z58z3 <= 5.46
s17 - s188 + 6.609815z17z188z3 <= 5.46
s17 - s86 + 6.636005z17z86z1 <= 5.46
s17 - s86 + 6.636005z17z86z3 <= 5.46
s17 - s159 + 6.644391z17z159z3 <= 5.46
s17 - s89 + 6.683507z17z89z1 <= 5.46
s17 - s175 + 6.847585z17z175z3 <= 5.46
s17 - s42 + 6.679899z17z42z3 <= 5.46
s17 - s150 + 6.702670z17z150z3 <= 5.46
s17 - s10 + 6.739126z17z10z1 <= 5.46
s17 - s10 + 6.739126z17z10z3 <= 5.46
s17 - s62 + 6.729073z17z62z3 <= 5.46
s17 - s139 + 6.667096z17z139z1 <= 5.46
s17 - s113 + 6.747595z17z113z1 <= 5.46
s127 - s164 + 6.466667z127z164z2 <= 5.46
s127 - s11 + 6.723734z127z11z1 <= 5.46
s127 - s95 + 6.764047z127z95z1 <= 5.46
s127 - s146 + 6.770770z127z146z2 <= 5.46
s127 - s186 + 6.952161z127z186z2 <= 5.46
s127 - s189 + 6.776087z127z189z1 <= 5.46
s127 - s129 + 6.788904z127z129z2 <= 5.46
s127 - s13 + 6.971077z127z13z2 <= 5.46
s127 - s163 + 6.793200z127z163z2 <= 5.46
s127 - s174 + 6.970251z127z174z2 <= 5.46
s127 - s86 + 6.997484z127z86z1 <= 5.46
s164 - s146 + 6.774631z164z146z2 <= 5.47
s164 - s186 + 6.956301z164z186z2 <= 5.47
s164 - s129 + 6.792559z164z129z2 <= 5.47
s164 - s13 + 6.975349z164z13z2 <= 5.47
s164 - s163 + 6.796938z164z163z2 <= 5.47
s164 - s174 + 6.974424z164z174z2 <= 5.47
s47 - s11 + 6.846744z47z11z1 <= 5.56
s47 - s95 + 6.849444z47z95z1 <= 5.56
s47 - s189 + 6.786372z47z189z1 <= 5.56
s47 - s86 + 6.726666z47z86z1 <= 5.56
s47 - s89 + 6.768700z47z89z1 <= 5.56
s47 - s10 + 6.801569z47z10z1 <= 5.56
s47 - s139 + 6.744391z47z139z1 <= 5.56
s47 - s113 + 6.809889z47z113z1 <= 5.56

x75x40x1 - 2z75z40z1 <= 0
x75x17x1 - 1z75z17z1 <= 0
x75x127x1 - 1z75z127z1 <= 0
x75x47x1 - 2z75z47z1 <= 0
x75x153x1 - 2z75z153z1 <= 0
x75x11x1 - 1z75z11z1 <= 0
x75x95x1 - 2z75z95z1 <= 0
x75x189x1 - 1z75z189z1 <= 0
x75x86x1 - 1z75z86z1 <= 0
x75x89x1 - 1z75z89z1 <= 0
x75x10x1 - 1z75z10z1 <= 0
x75x139x1 - 2z75z139z1 <= 0
x75x113x1 - 2z75z113z1 <= 0
x77x11x1 - 1z77z11z1 <= 0
x77x95x1 - 2z77z95z1 <= 0
x77x189x1 - 1z77z189z1 <= 0
x14x11x3 - 1z14z11z3 <= 0
x14x146x3 - 1z14z146z3 <= 0
x14x186x3 - 1z14z186z3 <= 0
x14x189x3 - 1z14z189z3 <= 0
x14x36x3 - 2z14z36z3 <= 0
x14x178x3 - 2z14z178z3 <= 0
x14x58x3 - 2z14z58z3 <= 0
x14x188x3 - 1z14z188z3 <= 0
x14x86x3 - 1z14z86z3 <= 0
x14x159x3 - 1z14z159z3 <= 0
x14x175x3 - 2z14z175z3 <= 0
x14x42x3 - 2z14z42z3 <= 0
x14x150x3 - 1z14z150z3 <= 0
x19x21x3 - 1z19z21z3 <= 0
x19x186x3 - 1z19z186z3 <= 0
x19x178x3 - 2z19z178z3 <= 0
x19x58x3 - 2z19z58z3 <= 0
x19x188x3 - 1z19z188z3 <= 0
x19x86x1 - 1z19z86z1 <= 0
x19x86x3 - 1z19z86z3 <= 0
x19x159x3 - 1z19z159z3 <= 0
x19x89x1 - 1z19z89z1 <= 0
x19x42x3 - 2z19z42z3 <= 0
x19x150x3 - 1z19z150z3 <= 0
x19x10x1 - 1z19z10z1 <= 0
x19x10x3 - 1z19z10z3 <= 0
x19x62x3 - 2z19z62z3 <= 0
x19x139x1 - 2z19z139z1 <= 0
x19x113x1 - 2z19z113z1 <= 0
x32x21x2 - 1z32z21z2 <= 0
x32x186x2 - 1z32z186z2 <= 0
x32x13x2 - 2z32z13z2 <= 0
x32x174x2 - 2z32z174z2 <= 0
x32x188x2 - 1z32z188z2 <= 0
x32x86x1 - 1z32z86z1 <= 0
x32x159x2 - 1z32z159z2 <= 0
x32x191x2 - 2z32z191z2 <= 0
x32x61x2 - 2z32z61z2 <= 0
x32x89x1 - 1z32z89z1 <= 0
x32x89x2 - 1z32z89z2 <= 0
x32x165x2 - 2z32z165z2 <= 0
x32x150x2 - 1z32z150z2 <= 0
x32x10x1 - 1z32z10z1 <= 0
x32x139x1 - 2z32z139z1 <= 0
x32x113x1 - 2z32z113z1 <= 0
x32x0x1 <= 1
x32x0x2 <= 1
x162x161x2 - 1z162z161z2 <= 0
x162x115x2 - 1z162z115z2 <= 0
x162x146x2 - 1z162z146z2 <= 0
x162x186x2 - 1z162z186z2 <= 0
x162x129x2 - 2z162z129z2 <= 0
x162x13x2 - 2z162z13z2 <= 0
x162x163x2 - 2z162z163z2 <= 0
x162x174x2 - 2z162z174z2 <= 0
x162x50x2 - 2z162z50z2 <= 0
x162x188x2 - 1z162z188z2 <= 0
x162x159x2 - 1z162z159z2 <= 0
x162x191x2 - 2z162z191z2 <= 0
x162x61x2 - 2z162z61z2 <= 0
x162x89x2 - 1z162z89z2 <= 0
x162x165x2 - 2z162z165z2 <= 0
x162x150x2 - 1z162z150z2 <= 0
x162x0x2 <= 2
x21x186x2 - 1z21z186z2 <= 0
x21x186x3 - 1z21z186z3 <= 0
x21x13x2 - 2z21z13z2 <= 0
x21x174x2 - 2z21z174z2 <= 0
x21x178x3 - 2z21z178z3 <= 0
x21x188x2 - 1z21z188z2 <= 0
x21x188x3 - 1z21z188z3 <= 0
x21x86x3 - 1z21z86z3 <= 0
x21x159x2 - 1z21z159z2 <= 0
x21x159x3 - 1z21z159z3 <= 0
x21x191x2 - 2z21z191z2 <= 0
x21x61x2 - 2z21z61z2 <= 0
x21x89x2 - 1z21z89z2 <= 0
x21x42x3 - 2z21z42z3 <= 0
x21x165x2 - 2z21z165z2 <= 0
x21x150x2 - 1z21z150z2 <= 0
x21x150x3 - 1z21z150z3 <= 0
x21x10x3 - 1z21z10z3 <= 0
x21x62x3 - 2z21z62z3 <= 0
x21x0x2 <= 1
x21x0x3 <= 1
x123x11x3 - 1z123z11z3 <= 0
x123x146x3 - 1z123z146z3 <= 0
x123x186x3 - 1z123z186z3 <= 0
x123x36x3 - 2z123z36z3 <= 0
x123x178x3 - 2z123z178z3 <= 0
x123x58x3 - 2z123z58z3 <= 0
x123x188x3 - 1z123z188z3 <= 0
x123x86x3 - 1z123z86z3 <= 0
x123x159x3 - 1z123z159z3 <= 0
x123x42x3 - 2z123z42z3 <= 0
x123x150x3 - 1z123z150z3 <= 0
x123x10x3 - 1z123z10z3 <= 0
x123x62x3 - 2z123z62z3 <= 0
x123x0x3 <= 2
x40x47x1 - 2z40z47z1 <= 0
x40x11x1 - 1z40z11z1 <= 0
x40x95x1 - 2z40z95z1 <= 0
x40x189x1 - 1z40z189z1 <= 0
x40x86x1 - 1z40z86z1 <= 0
x40x89x1 - 1z40z89z1 <= 0
x40x10x1 - 1z40z10z1 <= 0
x40x139x1 - 2z40z139z1 <= 0
x40x113x1 - 2z40z113z1 <= 0
x40x0x1 <= 2
x161x17x3 - 1z161z17z3 <= 0
x161x11x3 - 1z161z11z3 <= 0
x161x115x2 - 1z161z115z2 <= 0
x161x115x3 - 1z161z115z3 <= 0
x161x203x3 - 2z161z203z3 <= 0
x161x146x2 - 1z161z146z2 <= 0
x161x146x3 - 1z161z146z3 <= 0
x161x186x2 - 1z161z186z2 <= 0
x161x186x3 - 1z161z186z3 <= 0
x161x189x3 - 1z161z189z3 <= 0
x161x129x2 - 2z161z129z2 <= 0
x161x13x2 - 2z161z13z2 <= 0
x161x163x2 - 2z161z163z2 <= 0
x161x174x2 - 2z161z174z2 <= 0
x161x36x3 - 2z161z36z3 <= 0
x161x50x2 - 2z161z50z2 <= 0
x161x178x3 - 2z161z178z3 <= 0
x161x58x3 - 2z161z58z3 <= 0
x161x188x2 - 1z161z188z2 <= 0
x161x188x3 - 1z161z188z3 <= 0
x161x86x3 - 1z161z86z3 <= 0
x161x159x2 - 1z161z159z2 <= 0
x161x159x3 - 1z161z159z3 <= 0
x161x191x2 - 2z161z191z2 <= 0
x161x61x2 - 2z161z61z2 <= 0
x161x89x2 - 1z161z89z2 <= 0
x161x175x3 - 2z161z175z3 <= 0
x161x42x3 - 2z161z42z3 <= 0
x161x165x2 - 2z161z165z2 <= 0
x161x150x2 - 1z161z150z2 <= 0
x161x150x3 - 1z161z150z3 <= 0
x161x10x3 - 1z161z10z3 <= 0
x161x62x3 - 2z161z62z3 <= 0
x161x0x2 <= 1
x161x0x3 <= 1
x17x47x1 - 2z17z47z1 <= 0
x17x11x1 - 1z17z11z1 <= 0
x17x11x3 - 1z17z11z3 <= 0
x17x115x3 - 1z17z115z3 <= 0
x17x203x3 - 2z17z203z3 <= 0
x17x95x1 - 2z17z95z1 <= 0
x17x146x3 - 1z17z146z3 <= 0
x17x186x3 - 1z17z186z3 <= 0
x17x189x1 - 1z17z189z1 <= 0
x17x189x3 - 1z17z189z3 <= 0
x17x36x3 - 2z17z36z3 <= 0
x17x178x3 - 2z17z178z3 <= 0
x17x58x3 - 2z17z58z3 <= 0
x17x188x3 - 1z17z188z3 <= 0
x17x86x1 - 1z17z86z1 <= 0
x17x86x3 - 1z17z86z3 <= 0
x17x159x3 - 1z17z159z3 <= 0
x17x89x1 - 1z17z89z1 <= 0
x17x175x3 - 2z17z175z3 <= 0
x17x42x3 - 2z17z42z3 <= 0
x17x150x3 - 1z17z150z3 <= 0
x17x10x1 - 1z17z10z1 <= 0
x17x10x3 - 1z17z10z3 <= 0
x17x62x3 - 2z17z62z3 <= 0
x17x139x1 - 2z17z139z1 <= 0
x17x113x1 - 2z17z113z1 <= 0
x17x0x1 <= 1
x17x0x3 <= 1
x127x164x2 - 2z127z164z2 <= 0
x127x11x1 - 1z127z11z1 <= 0
x127x95x1 - 2z127z95z1 <= 0
x127x146x2 - 1z127z146z2 <= 0
x127x186x2 - 1z127z186z2 <= 0
x127x189x1 - 1z127z189z1 <= 0
x127x129x2 - 2z127z129z2 <= 0
x127x13x2 - 2z127z13z2 <= 0
x127x163x2 - 2z127z163z2 <= 0
x127x174x2 - 2z127z174z2 <= 0
x127x86x1 - 1z127z86z1 <= 0
x127x0x1 <= 1
x127x0x2 <= 1
x164x146x2 - 1z164z146z2 <= 0
x164x186x2 - 1z164z186z2 <= 0
x164x129x2 - 2z164z129z2 <= 0
x164x13x2 - 2z164z13z2 <= 0
x164x163x2 - 2z164z163z2 <= 0
x164x174x2 - 2z164z174z2 <= 0
x164x0x2 <= 2
x47x11x1 - 1z47z11z1 <= 0
x47x95x1 - 2z47z95z1 <= 0
x47x189x1 - 1z47z189z1 <= 0
x47x86x1 - 1z47z86z1 <= 0
x47x89x1 - 1z47z89z1 <= 0
x47x10x1 - 1z47z10z1 <= 0
x47x139x1 - 2z47z139z1 <= 0
x47x113x1 - 2z47z113z1 <= 0
x47x0x1 <= 2
x153x0x1 <= 2
x11x0x1 <= 1
x11x0x3 <= 1
x115x0x2 <= 1
x115x0x3 <= 1
x203x0x3 <= 2
x95x0x1 <= 2
x146x0x2 <= 1
x146x0x3 <= 1
x186x0x2 <= 1
x186x0x3 <= 1
x189x0x1 <= 1
x189x0x3 <= 1
x129x0x2 <= 2
x13x0x2 <= 2
x163x0x2 <= 2
x174x0x2 <= 2
x36x0x3 <= 2
x50x0x2 <= 2
x178x0x3 <= 2
x58x0x3 <= 2
x188x0x2 <= 1
x188x0x3 <= 1
x86x0x1 <= 1
x86x0x3 <= 1
x159x0x2 <= 1
x159x0x3 <= 1
x191x0x2 <= 2
x61x0x2 <= 2
x89x0x1 <= 1
x89x0x2 <= 1
x175x0x3 <= 2
x42x0x3 <= 2
x165x0x2 <= 2
x150x0x2 <= 1
x150x0x3 <= 1
x10x0x1 <= 1
x10x0x3 <= 1
x62x0x3 <= 2
x139x0x1 <= 2
x113x0x1 <= 2

s21 + 5.41z19z21z3 <= 11.41
s21 + 5.41z32z21z2 <= 11.41
s40 + 5.44z75z40z1 <= 11.44
s161 + 5.44z162z161z2 <= 11.44
s17 + 5.46z75z17z1 <= 11.46
s17 + 5.46z161z17z3 <= 11.46
s127 + 5.46z75z127z1 <= 11.46
s164 + 5.47z127z164z2 <= 11.47
s47 + 5.56z75z47z1 <= 11.56
s47 + 5.56z40z47z1 <= 11.56
s47 + 5.56z17z47z1 <= 11.56
s153 + 5.48z75z153z1 <= 11.48
s11 + 6.00z75z11z1 <= 12.00
s11 + 6.00z77z11z1 <= 12.00
s11 + 6.00z14z11z3 <= 12.00
s11 + 6.00z123z11z3 <= 12.00
s11 + 6.00z40z11z1 <= 12.00
s11 + 6.00z161z11z3 <= 12.00
s11 + 6.00z17z11z1 <= 12.00
s11 + 6.00z17z11z3 <= 12.00
s11 + 6.00z127z11z1 <= 12.00
s11 + 6.00z47z11z1 <= 12.00
s115 + 5.49z162z115z2 <= 11.49
s115 + 5.49z161z115z2 <= 11.49
s115 + 5.49z161z115z3 <= 11.49
s115 + 5.49z17z115z3 <= 11.49
s203 + 5.71z161z203z3 <= 11.71
s203 + 5.71z17z203z3 <= 11.71
s95 + 6.00z75z95z1 <= 12.00
s95 + 6.00z77z95z1 <= 12.00
s95 + 6.00z40z95z1 <= 12.00
s95 + 6.00z17z95z1 <= 12.00
s95 + 6.00z127z95z1 <= 12.00
s95 + 6.00z47z95z1 <= 12.00
s146 + 6.00z14z146z3 <= 12.00
s146 + 6.00z162z146z2 <= 12.00
s146 + 6.00z123z146z3 <= 12.00
s146 + 6.00z161z146z2 <= 12.00
s146 + 6.00z161z146z3 <= 12.00
s146 + 6.00z17z146z3 <= 12.00
s146 + 6.00z127z146z2 <= 12.00
s146 + 6.00z164z146z2 <= 12.00
s186 + 6.00z14z186z3 <= 12.00
s186 + 6.00z19z186z3 <= 12.00
s186 + 6.00z32z186z2 <= 12.00
s186 + 6.00z162z186z2 <= 12.00
s186 + 6.00z21z186z2 <= 12.00
s186 + 6.00z21z186z3 <= 12.00
s186 + 6.00z123z186z3 <= 12.00
s186 + 6.00z161z186z2 <= 12.00
s186 + 6.00z161z186z3 <= 12.00
s186 + 6.00z17z186z3 <= 12.00
s186 + 6.00z127z186z2 <= 12.00
s186 + 6.00z164z186z2 <= 12.00
s189 + 5.90z75z189z1 <= 11.90
s189 + 5.90z77z189z1 <= 11.90
s189 + 5.90z14z189z3 <= 11.90
s189 + 5.90z40z189z1 <= 11.90
s189 + 5.90z161z189z3 <= 11.90
s189 + 5.90z17z189z1 <= 11.90
s189 + 5.90z17z189z3 <= 11.90
s189 + 5.90z127z189z1 <= 11.90
s189 + 5.90z47z189z1 <= 11.90
s129 + 6.00z162z129z2 <= 12.00
s129 + 6.00z161z129z2 <= 12.00
s129 + 6.00z127z129z2 <= 12.00
s129 + 6.00z164z129z2 <= 12.00
s13 + 6.00z32z13z2 <= 12.00
s13 + 6.00z162z13z2 <= 12.00
s13 + 6.00z21z13z2 <= 12.00
s13 + 6.00z161z13z2 <= 12.00
s13 + 6.00z127z13z2 <= 12.00
s13 + 6.00z164z13z2 <= 12.00
s163 + 6.00z162z163z2 <= 12.00
s163 + 6.00z161z163z2 <= 12.00
s163 + 6.00z127z163z2 <= 12.00
s163 + 6.00z164z163z2 <= 12.00
s174 + 6.00z32z174z2 <= 12.00
s174 + 6.00z162z174z2 <= 12.00
s174 + 6.00z21z174z2 <= 12.00
s174 + 6.00z161z174z2 <= 12.00
s174 + 6.00z127z174z2 <= 12.00
s174 + 6.00z164z174z2 <= 12.00
s36 + 5.98z14z36z3 <= 11.98
s36 + 5.98z123z36z3 <= 11.98
s36 + 5.98z161z36z3 <= 11.98
s36 + 5.98z17z36z3 <= 11.98
s50 + 5.85z162z50z2 <= 11.85
s50 + 5.85z161z50z2 <= 11.85
s178 + 5.92z14z178z3 <= 11.92
s178 + 5.92z19z178z3 <= 11.92
s178 + 5.92z21z178z3 <= 11.92
s178 + 5.92z123z178z3 <= 11.92
s178 + 5.92z161z178z3 <= 11.92
s178 + 5.92z17z178z3 <= 11.92
s58 + 6.00z14z58z3 <= 12.00
s58 + 6.00z19z58z3 <= 12.00
s58 + 6.00z123z58z3 <= 12.00
s58 + 6.00z161z58z3 <= 12.00
s58 + 6.00z17z58z3 <= 12.00
s188 + 5.97z14z188z3 <= 11.97
s188 + 5.97z19z188z3 <= 11.97
s188 + 5.97z32z188z2 <= 11.97
s188 + 5.97z162z188z2 <= 11.97
s188 + 5.97z21z188z2 <= 11.97
s188 + 5.97z21z188z3 <= 11.97
s188 + 5.97z123z188z3 <= 11.97
s188 + 5.97z161z188z2 <= 11.97
s188 + 5.97z161z188z3 <= 11.97
s188 + 5.97z17z188z3 <= 11.97
s86 + 6.00z75z86z1 <= 12.00
s86 + 6.00z14z86z3 <= 12.00
s86 + 6.00z19z86z1 <= 12.00
s86 + 6.00z19z86z3 <= 12.00
s86 + 6.00z32z86z1 <= 12.00
s86 + 6.00z21z86z3 <= 12.00
s86 + 6.00z123z86z3 <= 12.00
s86 + 6.00z40z86z1 <= 12.00
s86 + 6.00z161z86z3 <= 12.00
s86 + 6.00z17z86z1 <= 12.00
s86 + 6.00z17z86z3 <= 12.00
s86 + 6.00z127z86z1 <= 12.00
s86 + 6.00z47z86z1 <= 12.00
s159 + 6.00z14z159z3 <= 12.00
s159 + 6.00z19z159z3 <= 12.00
s159 + 6.00z32z159z2 <= 12.00
s159 + 6.00z162z159z2 <= 12.00
s159 + 6.00z21z159z2 <= 12.00
s159 + 6.00z21z159z3 <= 12.00
s159 + 6.00z123z159z3 <= 12.00
s159 + 6.00z161z159z2 <= 12.00
s159 + 6.00z161z159z3 <= 12.00
s159 + 6.00z17z159z3 <= 12.00
s191 + 6.00z32z191z2 <= 12.00
s191 + 6.00z162z191z2 <= 12.00
s191 + 6.00z21z191z2 <= 12.00
s191 + 6.00z161z191z2 <= 12.00
s61 + 6.00z32z61z2 <= 12.00
s61 + 6.00z162z61z2 <= 12.00
s61 + 6.00z21z61z2 <= 12.00
s61 + 6.00z161z61z2 <= 12.00
s89 + 6.00z75z89z1 <= 12.00
s89 + 6.00z19z89z1 <= 12.00
s89 + 6.00z32z89z1 <= 12.00
s89 + 6.00z32z89z2 <= 12.00
s89 + 6.00z162z89z2 <= 12.00
s89 + 6.00z21z89z2 <= 12.00
s89 + 6.00z40z89z1 <= 12.00
s89 + 6.00z161z89z2 <= 12.00
s89 + 6.00z17z89z1 <= 12.00
s89 + 6.00z47z89z1 <= 12.00
s175 + 6.00z14z175z3 <= 12.00
s175 + 6.00z161z175z3 <= 12.00
s175 + 6.00z17z175z3 <= 12.00
s42 + 6.00z14z42z3 <= 12.00
s42 + 6.00z19z42z3 <= 12.00
s42 + 6.00z21z42z3 <= 12.00
s42 + 6.00z123z42z3 <= 12.00
s42 + 6.00z161z42z3 <= 12.00
s42 + 6.00z17z42z3 <= 12.00
s165 + 6.00z32z165z2 <= 12.00
s165 + 6.00z162z165z2 <= 12.00
s165 + 6.00z21z165z2 <= 12.00
s165 + 6.00z161z165z2 <= 12.00
s150 + 6.00z14z150z3 <= 12.00
s150 + 6.00z19z150z3 <= 12.00
s150 + 6.00z32z150z2 <= 12.00
s150 + 6.00z162z150z2 <= 12.00
s150 + 6.00z21z150z2 <= 12.00
s150 + 6.00z21z150z3 <= 12.00
s150 + 6.00z123z150z3 <= 12.00
s150 + 6.00z161z150z2 <= 12.00
s150 + 6.00z161z150z3 <= 12.00
s150 + 6.00z17z150z3 <= 12.00
s10 + 6.00z75z10z1 <= 12.00
s10 + 6.00z19z10z1 <= 12.00
s10 + 6.00z19z10z3 <= 12.00
s10 + 6.00z32z10z1 <= 12.00
s10 + 6.00z21z10z3 <= 12.00
s10 + 6.00z123z10z3 <= 12.00
s10 + 6.00z40z10z1 <= 12.00
s10 + 6.00z161z10z3 <= 12.00
s10 + 6.00z17z10z1 <= 12.00
s10 + 6.00z17z10z3 <= 12.00
s10 + 6.00z47z10z1 <= 12.00
s62 + 6.00z19z62z3 <= 12.00
s62 + 6.00z21z62z3 <= 12.00
s62 + 6.00z123z62z3 <= 12.00
s62 + 6.00z161z62z3 <= 12.00
s62 + 6.00z17z62z3 <= 12.00
s139 + 6.00z75z139z1 <= 12.00
s139 + 6.00z19z139z1 <= 12.00
s139 + 6.00z32z139z1 <= 12.00
s139 + 6.00z40z139z1 <= 12.00
s139 + 6.00z17z139z1 <= 12.00
s139 + 6.00z47z139z1 <= 12.00
s113 + 6.00z75z113z1 <= 12.00
s113 + 6.00z19z113z1 <= 12.00
s113 + 6.00z32z113z1 <= 12.00
s113 + 6.00z40z113z1 <= 12.00
s113 + 6.00z17z113z1 <= 12.00
s113 + 6.00z47z113z1 <= 12.00

Bounds
s75 = 3.940680
s183 = 5.184143
s43 = 5.173333
s100 = 5.175342
s5 = 5.088032
s41 = 5.182068
s64 = 5.076046
s77 = 4.290000
s185 = 5.210552
s14 = 4.375631
s67 = 5.307167
s19 = 4.380000
4.380000 <= s32 <= 5.380000
4.400000 <= s162 <= 5.400000
4.410000 <= s21 <= 5.410000
4.410000 <= s123 <= 5.410000
4.440000 <= s40 <= 5.440000
4.440000 <= s161 <= 5.440000
4.460000 <= s17 <= 5.460000
4.460000 <= s127 <= 5.460000
4.470000 <= s164 <= 5.470000
4.560000 <= s47 <= 5.560000
5.110000 <= s153 <= 5.480000
5.160000 <= s11 <= 6.000000
5.190000 <= s115 <= 5.490000
5.300000 <= s203 <= 5.710000
5.310000 <= s95 <= 6.000000
5.320000 <= s146 <= 6.000000
5.340000 <= s186 <= 6.000000
5.360000 <= s189 <= 5.900000
5.380000 <= s129 <= 6.000000
5.400000 <= s13 <= 6.000000
5.400000 <= s163 <= 6.000000
5.400000 <= s174 <= 6.000000
5.410000 <= s36 <= 5.980000
5.410000 <= s50 <= 5.850000
5.410000 <= s178 <= 5.920000
5.440000 <= s58 <= 6.000000
5.490000 <= s188 <= 5.970000
5.500000 <= s86 <= 6.000000
5.660000 <= s159 <= 6.000000
5.670000 <= s191 <= 6.000000
5.680000 <= s61 <= 6.000000
5.690000 <= s89 <= 6.000000
5.700000 <= s175 <= 6.000000
5.730000 <= s42 <= 6.000000
5.750000 <= s165 <= 6.000000
5.760000 <= s150 <= 6.000000
5.770000 <= s10 <= 6.000000
5.820000 <= s62 <= 6.000000
5.850000 <= s139 <= 6.000000
5.900000 <= s113 <= 6.000000

General
x75x40x1 x75x17x1 x75x127x1 x75x47x1 x75x153x1 x75x11x1 x75x95x1 x75x189x1 x75x86x1 x75x89x1 x75x10x1 x75x139x1 x75x113x1 






x77x11x1 x77x95x1 x77x189x1 

x14x11x3 x14x146x3 x14x186x3 x14x189x3 x14x36x3 x14x178x3 x14x58x3 x14x188x3 x14x86x3 x14x159x3 x14x175x3 x14x42x3 x14x150x3 

x19x21x3 x19x186x3 x19x178x3 x19x58x3 x19x188x3 x19x86x1 x19x86x3 x19x159x3 x19x89x1 x19x42x3 x19x150x3 x19x10x1 x19x10x3 x19x62x3 x19x139x1 x19x113x1 
x32x21x2 x32x186x2 x32x13x2 x32x174x2 x32x188x2 x32x86x1 x32x159x2 x32x191x2 x32x61x2 x32x89x1 x32x89x2 x32x165x2 x32x150x2 x32x10x1 x32x139x1 x32x113x1 x32x0x1 x32x0x2 
x162x161x2 x162x115x2 x162x146x2 x162x186x2 x162x129x2 x162x13x2 x162x163x2 x162x174x2 x162x50x2 x162x188x2 x162x159x2 x162x191x2 x162x61x2 x162x89x2 x162x165x2 x162x150x2 x162x0x2 
x21x186x2 x21x186x3 x21x13x2 x21x174x2 x21x178x3 x21x188x2 x21x188x3 x21x86x3 x21x159x2 x21x159x3 x21x191x2 x21x61x2 x21x89x2 x21x42x3 x21x165x2 x21x150x2 x21x150x3 x21x10x3 x21x62x3 x21x0x2 x21x0x3 
x123x11x3 x123x146x3 x123x186x3 x123x36x3 x123x178x3 x123x58x3 x123x188x3 x123x86x3 x123x159x3 x123x42x3 x123x150x3 x123x10x3 x123x62x3 x123x0x3 
x40x47x1 x40x11x1 x40x95x1 x40x189x1 x40x86x1 x40x89x1 x40x10x1 x40x139x1 x40x113x1 x40x0x1 
x161x17x3 x161x11x3 x161x115x2 x161x115x3 x161x203x3 x161x146x2 x161x146x3 x161x186x2 x161x186x3 x161x189x3 x161x129x2 x161x13x2 x161x163x2 x161x174x2 x161x36x3 x161x50x2 x161x178x3 x161x58x3 x161x188x2 x161x188x3 x161x86x3 x161x159x2 x161x159x3 x161x191x2 x161x61x2 x161x89x2 x161x175x3 x161x42x3 x161x165x2 x161x150x2 x161x150x3 x161x10x3 x161x62x3 x161x0x2 x161x0x3 
x17x47x1 x17x11x1 x17x11x3 x17x115x3 x17x203x3 x17x95x1 x17x146x3 x17x186x3 x17x189x1 x17x189x3 x17x36x3 x17x178x3 x17x58x3 x17x188x3 x17x86x1 x17x86x3 x17x159x3 x17x89x1 x17x175x3 x17x42x3 x17x150x3 x17x10x1 x17x10x3 x17x62x3 x17x139x1 x17x113x1 x17x0x1 x17x0x3 
x127x164x2 x127x11x1 x127x95x1 x127x146x2 x127x186x2 x127x189x1 x127x129x2 x127x13x2 x127x163x2 x127x174x2 x127x86x1 x127x0x1 x127x0x2 
x164x146x2 x164x186x2 x164x129x2 x164x13x2 x164x163x2 x164x174x2 x164x0x2 
x47x11x1 x47x95x1 x47x189x1 x47x86x1 x47x89x1 x47x10x1 x47x139x1 x47x113x1 x47x0x1 
x153x0x1 
x11x0x1 x11x0x3 
x115x0x2 x115x0x3 
x203x0x3 
x95x0x1 
x146x0x2 x146x0x3 
x186x0x2 x186x0x3 
x189x0x1 x189x0x3 
x129x0x2 
x13x0x2 
x163x0x2 
x174x0x2 
x36x0x3 
x50x0x2 
x178x0x3 
x58x0x3 
x188x0x2 x188x0x3 
x86x0x1 x86x0x3 
x159x0x2 x159x0x3 
x191x0x2 
x61x0x2 
x89x0x1 x89x0x2 
x175x0x3 
x42x0x3 
x165x0x2 
x150x0x2 x150x0x3 
x10x0x1 x10x0x3 
x62x0x3 
x139x0x1 
x113x0x1 

Binaries
y32 y162 y21 y123 y40 y161 y17 y127 y164 y47 y153 y11 y115 y203 y95 y146 y186 y189 y129 y13 y163 y174 y36 y50 y178 y58 y188 y86 y159 y191 y61 y89 y175 y42 y165 y150 y10 y62 y139 y113 
z75z40z1 z75z17z1 z75z127z1 z75z47z1 z75z153z1 z75z11z1 z75z95z1 z75z189z1 z75z86z1 z75z89z1 z75z10z1 z75z139z1 z75z113z1 






z77z11z1 z77z95z1 z77z189z1 

z14z11z3 z14z146z3 z14z186z3 z14z189z3 z14z36z3 z14z178z3 z14z58z3 z14z188z3 z14z86z3 z14z159z3 z14z175z3 z14z42z3 z14z150z3 

z19z21z3 z19z186z3 z19z178z3 z19z58z3 z19z188z3 z19z86z1 z19z86z3 z19z159z3 z19z89z1 z19z42z3 z19z150z3 z19z10z1 z19z10z3 z19z62z3 z19z139z1 z19z113z1 
z32z21z2 z32z186z2 z32z13z2 z32z174z2 z32z188z2 z32z86z1 z32z159z2 z32z191z2 z32z61z2 z32z89z1 z32z89z2 z32z165z2 z32z150z2 z32z10z1 z32z139z1 z32z113z1 
z162z161z2 z162z115z2 z162z146z2 z162z186z2 z162z129z2 z162z13z2 z162z163z2 z162z174z2 z162z50z2 z162z188z2 z162z159z2 z162z191z2 z162z61z2 z162z89z2 z162z165z2 z162z150z2 
z21z186z2 z21z186z3 z21z13z2 z21z174z2 z21z178z3 z21z188z2 z21z188z3 z21z86z3 z21z159z2 z21z159z3 z21z191z2 z21z61z2 z21z89z2 z21z42z3 z21z165z2 z21z150z2 z21z150z3 z21z10z3 z21z62z3 
z123z11z3 z123z146z3 z123z186z3 z123z36z3 z123z178z3 z123z58z3 z123z188z3 z123z86z3 z123z159z3 z123z42z3 z123z150z3 z123z10z3 z123z62z3 
z40z47z1 z40z11z1 z40z95z1 z40z189z1 z40z86z1 z40z89z1 z40z10z1 z40z139z1 z40z113z1 
z161z17z3 z161z11z3 z161z115z2 z161z115z3 z161z203z3 z161z146z2 z161z146z3 z161z186z2 z161z186z3 z161z189z3 z161z129z2 z161z13z2 z161z163z2 z161z174z2 z161z36z3 z161z50z2 z161z178z3 z161z58z3 z161z188z2 z161z188z3 z161z86z3 z161z159z2 z161z159z3 z161z191z2 z161z61z2 z161z89z2 z161z175z3 z161z42z3 z161z165z2 z161z150z2 z161z150z3 z161z10z3 z161z62z3 
z17z47z1 z17z11z1 z17z11z3 z17z115z3 z17z203z3 z17z95z1 z17z146z3 z17z186z3 z17z189z1 z17z189z3 z17z36z3 z17z178z3 z17z58z3 z17z188z3 z17z86z1 z17z86z3 z17z159z3 z17z89z1 z17z175z3 z17z42z3 z17z150z3 z17z10z1 z17z10z3 z17z62z3 z17z139z1 z17z113z1 
z127z164z2 z127z11z1 z127z95z1 z127z146z2 z127z186z2 z127z189z1 z127z129z2 z127z13z2 z127z163z2 z127z174z2 z127z86z1 
z164z146z2 z164z186z2 z164z129z2 z164z13z2 z164z163z2 z164z174z2 
z47z11z1 z47z95z1 z47z189z1 z47z86z1 z47z89z1 z47z10z1 z47z139z1 z47z113z1 































End